p cnf 64 256
56 -58 64 0
53 59 61 0
-52 58 -59 0
-51 -60 -62 0
48 -58 59 0
48 52 62 0
-46 -53 60 0
45 -58 62 0
45 -56 61 0
-45 49 -64 0
-44 -52 -62 0
-43 -52 -56 0
42 -43 62 0
-41 -48 53 0
-41 -46 -59 0
-41 46 58 0
-40 -47 58 0
-39 -53 54 0
-39 43 50 0
39 40 -64 0
-38 42 -54 0
38 41 -55 0
37 -50 -58 0
-37 48 -56 0
36 -58 63 0
-36 54 60 0
-36 -50 -53 0
36 42 47 0
-36 37 60 0
-35 43 -59 0
-35 -37 -54 0
-35 36 -58 0
35 36 -41 0
-34 -54 60 0
34 48 -61 0
-33 -52 61 0
-33 48 52 0
33 -34 55 0
32 -59 -61 0
32 -51 -55 0
32 51 -53 0
32 -50 -53 0
-32 -49 59 0
31 48 59 0
30 60 -61 0
30 -50 -55 0
-30 50 -55 0
30 -47 -63 0
-30 -43 57 0
-30 42 -58 0
-30 -41 -61 0
-30 -35 57 0
29 41 57 0
29 40 -42 0
-29 39 -41 0
-29 32 46 0
28 -50 -58 0
-28 -47 54 0
-28 -39 -63 0
-28 -37 -42 0
-28 -34 39 0
27 -56 64 0
27 43 58 0
-27 -40 -56 0
-27 32 48 0
-27 29 -59 0
-26 32 64 0
-26 32 61 0
26 29 47 0
25 35 -60 0
25 -32 62 0
24 48 53 0
24 48 -50 0
-24 -42 -58 0
24 31 52 0
24 29 62 0
-23 -55 63 0
23 40 -57 0
-23 25 -57 0
-22 43 -54 0
22 43 51 0
-22 -40 -55 0
-22 -35 -48 0
22 -35 46 0
22 -32 36 0
22 -32 35 0
-22 -28 -61 0
21 42 51 0
21 -40 55 0
-21 40 -51 0
21 -39 -48 0
21 -36 40 0
21 -32 -46 0
21 -29 56 0
21 24 -38 0
-20 52 62 0
20 46 -58 0
-20 -46 -54 0
20 43 -47 0
-20 -28 -35 0
20 -27 -29 0
-20 24 -50 0
20 23 -27 0
-19 52 56 0
-19 -51 58 0
19 40 -49 0
-19 -36 -62 0
-19 -25 -53 0
-18 48 -51 0
-18 -42 47 0
-18 36 56 0
18 35 60 0
18 34 53 0
-18 25 55 0
18 23 -37 0
-18 23 25 0
17 -55 -64 0
-17 -53 -62 0
-17 -45 54 0
-17 33 46 0
17 -30 -50 0
-17 30 -35 0
-17 -22 -41 0
17 20 42 0
-17 18 20 0
16 -52 58 0
16 -35 -60 0
16 -35 42 0
16 -34 -36 0
-16 31 -49 0
-16 31 38 0
-16 29 46 0
16 28 64 0
-16 25 -49 0
16 24 33 0
-16 -23 48 0
-15 -35 57 0
15 -31 -55 0
-15 31 38 0
15 -23 41 0
15 23 28 0
14 38 55 0
-14 38 42 0
14 37 -53 0
-14 34 -45 0
14 -34 40 0
14 -31 -56 0
-14 -27 58 0
-14 21 -25 0
14 19 60 0
14 -19 52 0
14 18 39 0
-14 -16 -20 0
-13 -47 -50 0
-13 -42 -54 0
-13 -38 -47 0
13 -36 57 0
-13 -32 -63 0
13 -26 -39 0
13 -24 -42 0
13 21 -57 0
-13 17 -18 0
-13 16 51 0
13 -15 63 0
12 -48 55 0
-12 -43 55 0
12 35 50 0
12 29 40 0
12 26 31 0
-12 20 -53 0
-12 -17 -23 0
-12 15 -58 0
-12 -13 24 0
-11 -49 52 0
-11 42 47 0
-11 -30 49 0
11 -25 -47 0
-11 18 -55 0
-11 -17 -54 0
-11 15 -53 0
11 13 40 0
11 -12 -57 0
11 12 55 0
-11 -12 -36 0
10 60 -62 0
10 53 -61 0
10 -40 -45 0
10 34 -60 0
-10 -31 55 0
-10 -19 -30 0
10 12 -37 0
-9 60 64 0
-9 -30 62 0
-9 -27 42 0
-9 24 43 0
9 -23 61 0
8 -48 50 0
-8 -26 -28 0
-8 17 46 0
8 11 -54 0
8 -10 11 0
7 41 54 0
-7 -40 -51 0
7 39 57 0
7 -37 54 0
7 -34 35 0
-7 33 44 0
7 24 -58 0
-7 -13 -52 0
7 -12 39 0
7 9 -55 0
-6 39 -42 0
-6 27 -46 0
-6 19 46 0
-6 -16 -25 0
-5 -56 60 0
-5 -38 -44 0
-5 -33 48 0
-5 -8 17 0
-4 -44 48 0
4 -31 -34 0
-4 25 -27 0
-4 -24 -29 0
4 17 41 0
-4 -15 -37 0
4 -11 -43 0
-4 11 31 0
4 9 -41 0
4 9 -19 0
3 34 63 0
-3 -31 -41 0
-3 -30 -40 0
-3 25 -26 0
-3 24 -44 0
-3 -19 -50 0
3 -19 41 0
3 18 45 0
-3 16 39 0
2 19 41 0
-2 -18 -60 0
2 12 -47 0
-2 9 -17 0
2 -8 -48 0
-2 -8 -24 0
1 -56 64 0
1 -55 -58 0
1 48 -52 0
-1 -26 -27 0
-1 -25 64 0
1 20 -54 0
1 20 -31 0
1 -9 -28 0
1 -9 15 0
1 7 61 0
-1 -3 51 0
1 3 -39 0
